6847
1 0 1 0 1 1 1 1 0 0
5 6 4 6 7 7 7 7 5 5 4 6 2 6 2 7 7 7 0 6 6 6 4 4 6 5 5 4 5 5 0 0 0 0 7 2 2 6 6 2 2 7 7 7 7 5 0 5 6 4 4 6 6 6 2 7 2 5 5 5 0 0 6 5 0 6 6 6 4 4 0 4 4 0 7 7 2 2 6 5 7 2 2 7 7 7 2 2 7 2
